219	42	4	76	
16	12	19	16

0	0	0	0	0	0	4	1	2	3	4
1	0	0	0	8	2	1	6
2	4	0	9	0	3	1	8
3	0	0	3	1	2	1	5
4	5	7	0	10	3	1	10
5	0	0	1	0	2	1	13
6	0	0	0	6	6	1	7
7	0	5	0	0	9	1	9
8	3	0	2	4	10	1	21
9	0	4	1	5	5	1	11
10	0	9	0	0	1	1	14
11	0	0	7	0	10	1	12
12	8	2	2	4	4	1	19
13	7	0	4	0	5	1	15
14	2	0	10	0	4	1	16
15	0	0	0	1	7	1	17
16	6	0	0	0	7	1	24
17	0	0	9	0	8	1	18
18	0	2	2	0	3	1	22
19	2	0	0	0	5	1	20
20	9	1	9	7	5	1	27
21	3	0	0	0	3	1	31
22	4	5	0	0	8	1	23
23	1	9	3	6	9	1	25
24	4	1	6	9	8	1	28
25	10	0	0	0	7	1	26
26	0	0	3	8	9	1	29
27	6	8	8	0	7	1	33
28	7	0	9	3	1	1	30
29	0	0	4	0	5	1	40
30	9	1	0	0	7	1	32
31	7	0	0	7	6	1	36
32	0	2	6	0	9	1	34
33	0	0	0	1	10	1	37
34	1	5	3	0	3	1	35
35	0	0	0	1	2	1	38
36	7	3	3	8	9	1	38
37	0	0	4	5	2	1	39
38	2	0	9	0	5	1	41
39	0	2	0	0	1	1	41
40	0	0	10	3	7	1	41
41	0	0	0	0	0	0
